&CONTROL
   calculation      = 'scf'
   verbosity        = 'high'
   tprnfor          = .true.
   outdir           = './'
   prefix           = 'ZnO-3.14-1.68-131'
   disk_io          = 'none'
   pseudo_dir       = '/home/jvc/QEspresso7.2/ZnO_database/pseudos'
/
&SYSTEM
   ibrav            = 0
   ecutwfc          = 50
   ecutrho          = 400
   occupations      = 'fixed'
   ntyp             = 2
   nat              = 12
/
&ELECTRONS
   conv_thr         = 1e-08
   mixing_beta      = 0.3
/
&IONS
/
&CELL
/
&FCP
/
&RISM
/
ATOMIC_SPECIES
Zn 65.38 Zn.upf
O 15.999 O.upf

K_POINTS automatic
6 6 6  0 0 0

CELL_PARAMETERS angstrom
3.13892036422839 0.00000000000000 0.00000000000000
-4.70838054634258 8.15515432763426 0.00000000000000
0.00000000000000 0.00000000000000 5.27003601206258

ATOMIC_POSITIONS crystal
Zn 0.6666666667 0.1111111111 0.5006335854  
Zn 0.3333333333 0.2222222222 0.0006335854  
O 0.6666666667 0.1111111111 0.8796764146  
O 0.3333333333 0.2222222222 0.3796764146  
Zn 0.6666666667 0.4444444444 0.5006335854  
Zn 0.3333333333 0.5555555556 0.0006335854  
O 0.6666666667 0.4444444444 0.8796764146  
O 0.3333333333 0.5555555556 0.3796764146  
Zn 0.6666666667 0.7777777778 0.5006335854  
Zn 0.3333333333 0.8888888889 0.0006335854  
O 0.6666666667 0.7777777778 0.8796764146  
O 0.3333333333 0.8888888889 0.3796764146  

