&CONTROL
   calculation      = 'scf'
   tprnfor          = .true.
   outdir           = './'
   prefix           = 'ZnO_supercells'
   pseudo_dir      = '../pseudos'
/
&SYSTEM
   ibrav            = 0
   ecutwfc          = 50
   ecutrho          = 400
   occupations      = 'fixed'
   ntyp             = 2
   nat              = 32
/
&ELECTRONS
   conv_thr         = 1e-08
   mixing_beta      = 0.3
/
&IONS
/
&CELL
/
&FCP
/
&RISM
/
ATOMIC_SPECIES
Zn 65.38 Zn.upf
O 15.999 O.upf

K_POINTS automatic
6 6 6  0 0 0

CELL_PARAMETERS angstrom
6.50000000000000 0.00000000000000 0.00000000000000
-3.25000000000000 5.62916512459885 0.00000000000000
0.00000000000000 0.00000000000000 10.40000000000000

ATOMIC_POSITIONS angstrom
Zn 0.0000000000 0.0000000000 0.0000000000  
O 0.0000000000 1.8763883749 0.6229166667  
Zn 0.0000000000 1.8763883749 2.6000000000  
O 0.0000000000 0.0000000000 3.2229166667  
Zn 0.0000000000 0.0000000000 5.2000000000  
O 0.0000000000 1.8763883749 5.8229166667  
Zn 0.0000000000 1.8763883749 7.8000000000  
O 0.0000000000 0.0000000000 8.4229166667  
Zn -1.6250000000 2.8145825623 0.0000000000  
O -1.6250000000 4.6909709372 0.6229166667  
Zn -1.6250000000 4.6909709372 2.6000000000  
O -1.6250000000 2.8145825623 3.2229166667  
Zn -1.6250000000 2.8145825623 5.2000000000  
O -1.6250000000 4.6909709372 5.8229166667  
Zn -1.6250000000 4.6909709372 7.8000000000  
O -1.6250000000 2.8145825623 8.4229166667  
Zn 3.2500000000 0.0000000000 0.0000000000  
O 3.2500000000 1.8763883749 0.6229166667  
Zn 3.2500000000 1.8763883749 2.6000000000  
O 3.2500000000 0.0000000000 3.2229166667  
Zn 3.2500000000 0.0000000000 5.2000000000  
O 3.2500000000 1.8763883749 5.8229166667  
Zn 3.2500000000 1.8763883749 7.8000000000  
O 3.2500000000 0.0000000000 8.4229166667  
Zn 1.6250000000 2.8145825623 0.0000000000  
O 1.6250000000 4.6909709372 0.6229166667  
Zn 1.6250000000 4.6909709372 2.6000000000  
O 1.6250000000 2.8145825623 3.2229166667  
Zn 1.6250000000 2.8145825623 5.2000000000  
O 1.6250000000 4.6909709372 5.8229166667  
Zn 1.6250000000 4.6909709372 7.8000000000  
O 1.6250000000 2.8145825623 8.4229166667
