&CONTROL
   calculation      = 'scf'
   verbosity        = 'high'
   tprnfor          = .true.
   outdir           = './'
   prefix           = 'ZnO-3.01-1.61-322'
   disk_io          = 'none'
   pseudo_dir       = '/home/jvc/QEspresso7.2/ZnO_database/pseudos'
/
&SYSTEM
   ibrav            = 0
   ecutwfc          = 50
   ecutrho          = 400
   occupations      = 'fixed'
   ntyp             = 2
   nat              = 48
/
&ELECTRONS
   conv_thr         = 1e-08
   mixing_beta      = 0.3
/
&IONS
/
&CELL
/
&FCP
/
&RISM
/
ATOMIC_SPECIES
Zn 65.38 Zn.upf
O 15.999 O.upf

K_POINTS automatic
2 3 3  0 0 0

CELL_PARAMETERS angstrom
9.80907514500000 0.00000000000000 0.00000000000000
-3.26969171400000 5.66327217600000 0.00000000000000
0.00000000000000 0.00000000000000 10.55690828400000

ATOMIC_POSITIONS crystal
Zn 0.2222222222 0.1666666666 0.2503167927  
Zn 0.1111111111 0.3333333333 0.0003167927  
O 0.2222222222 0.1666666666 0.4398382073  
O 0.1111111111 0.3333333333 0.1898382073  
Zn 0.2222222222 0.1666666666 0.7503167927  
Zn 0.1111111111 0.3333333333 0.5003167927  
O 0.2222222222 0.1666666666 0.9398382073  
O 0.1111111111 0.3333333333 0.6898382073  
Zn 0.2222222222 0.6666666666 0.2503167927  
Zn 0.1111111111 0.8333333334 0.0003167927  
O 0.2222222222 0.6666666666 0.4398382073  
O 0.1111111111 0.8333333334 0.1898382073  
Zn 0.2222222222 0.6666666666 0.7503167927  
Zn 0.1111111111 0.8333333334 0.5003167927  
O 0.2222222222 0.6666666666 0.9398382073  
O 0.1111111111 0.8333333334 0.6898382073  
Zn 0.5555555556 0.1666666666 0.2503167927  
Zn 0.4444444444 0.3333333333 0.0003167927  
O 0.5555555556 0.1666666666 0.4398382073  
O 0.4444444444 0.3333333333 0.1898382073  
Zn 0.5555555556 0.1666666666 0.7503167927  
Zn 0.4444444444 0.3333333333 0.5003167927  
O 0.5555555556 0.1666666666 0.9398382073  
O 0.4444444444 0.3333333333 0.6898382073  
Zn 0.5555555556 0.6666666666 0.2503167927  
Zn 0.4444444444 0.8333333334 0.0003167927  
O 0.5555555556 0.6666666666 0.4398382073  
O 0.4444444444 0.8333333334 0.1898382073  
Zn 0.5555555556 0.6666666666 0.7503167927  
Zn 0.4444444444 0.8333333334 0.5003167927  
O 0.5555555556 0.6666666666 0.9398382073  
O 0.4444444444 0.8333333334 0.6898382073  
Zn 0.8888888889 0.1666666666 0.2503167927  
Zn 0.7777777778 0.3333333333 0.0003167927  
O 0.8888888889 0.1666666666 0.4398382073  
O 0.7777777778 0.3333333333 0.1898382073  
Zn 0.8888888889 0.1666666666 0.7503167927  
Zn 0.7777777778 0.3333333333 0.5003167927  
O 0.8888888889 0.1666666666 0.9398382073  
O 0.7777777778 0.3333333333 0.6898382073  
Zn 0.8888888889 0.6666666666 0.2503167927  
Zn 0.7777777778 0.8333333334 0.0003167927  
O 0.8888888889 0.6666666666 0.4398382073  
O 0.7777777778 0.8333333334 0.1898382073  
Zn 0.8888888889 0.6666666666 0.7503167927  
Zn 0.7777777778 0.8333333334 0.5003167927  
O 0.8888888889 0.6666666666 0.9398382073  
O 0.7777777778 0.8333333334 0.6898382073  

