&CONTROL
  calculation = 'scf',
  pseudo_dir = '/home/jvc/QEspresso7.2/ZnO_database/pseudos',
  outdir='./',
  prefix = 'ZnO_ANN',
  tprnfor=.true.,!
/
&SYSTEM
  ibrav= 4,
  celldm(1) = __CELLDM1__, ! Bohr
  celldm(3) = __CELLDM3__, ! Bohr
  ntyp= 2,
  nat= 4,
  ecutwfc = 50,
  ecutrho = 400,
  occupations = 'fixed',
/
&ELECTRONS
  conv_thr= 1.0d-8,
  mixing_beta=0.3,
/
ATOMIC_SPECIES
Zn  63.380  Zn.upf
O   15.999  O.upf

K_POINTS automatic
6 6 6 0 0 0

ATOMIC_POSITIONS (crystal)
__ATOMIC_POSITIONS__
