&CONTROL
   calculation      = 'scf'
   verbosity        = 'high'
   tprnfor          = .true.
   outdir           = './'
   prefix           = 'ZnO-3.14-1.71-112'
   disk_io          = 'none'
   pseudo_dir       = '/home/jvc/QEspresso7.2/ZnO_database/pseudos'
/
&SYSTEM
   ibrav            = 0
   ecutwfc          = 50
   ecutrho          = 400
   occupations      = 'fixed'
   ntyp             = 2
   nat              = 8
/
&ELECTRONS
   conv_thr         = 1e-08
   mixing_beta      = 0.3
/
&IONS
/
&CELL
/
&FCP
/
&RISM
/
ATOMIC_SPECIES
Zn 65.38 Zn.upf
O 15.999 O.upf

K_POINTS automatic
6 6 6  0 0 0

CELL_PARAMETERS angstrom
3.13892036422839 0.00000000000000 0.00000000000000
-1.56946018211419 2.71838477587809 0.00000000000000
0.00000000000000 0.00000000000000 10.74276571689681

ATOMIC_POSITIONS crystal
Zn 0.0000000000 0.0000000000 0.0000000000  
O 0.3333333333 0.6666666667 0.0680836388  
Zn 0.3333333333 0.6666666667 0.2500000000  
O 0.0000000000 0.0000000000 0.3180836388  
Zn 0.0000000000 0.0000000000 0.5000000000  
O 0.3333333333 0.6666666667 0.5680836388  
Zn 0.3333333333 0.6666666667 0.7500000000  
O 0.0000000000 0.0000000000 0.8180836388  

