&CONTROL
   calculation      = 'scf'
   verbosity        = 'high'
   tprnfor          = .true.
   outdir           = './'
   prefix           = 'ZnO-3.01-1.78-112'
   disk_io          = 'none'
   pseudo_dir       = '/home/jvc/QEspresso7.2/ZnO_database/pseudos'
/
&SYSTEM
   ibrav            = 0
   ecutwfc          = 50
   ecutrho          = 400
   occupations      = 'fixed'
   ntyp             = 2
   nat              = 8
/
&ELECTRONS
   conv_thr         = 1e-08
   mixing_beta      = 0.3
/
&IONS
/
&CELL
/
&FCP
/
&RISM
/
ATOMIC_SPECIES
Zn 65.38 Zn.upf
O 15.999 O.upf

K_POINTS automatic
6 6 6  0 0 0

CELL_PARAMETERS angstrom
3.00813201571887 0.00000000000000 0.00000000000000
-1.50406600785944 2.60511874354983 0.00000000000000
0.00000000000000 0.00000000000000 10.68364672317175

ATOMIC_POSITIONS crystal
Zn 0.0000000000 0.0000000000 0.0000000000  
O 0.3333333333 0.6666666667 0.0721477492  
Zn 0.3333333333 0.6666666667 0.2500000000  
O 0.0000000000 0.0000000000 0.3221477492  
Zn 0.0000000000 0.0000000000 0.5000000000  
O 0.3333333333 0.6666666667 0.5721477492  
Zn 0.3333333333 0.6666666667 0.7500000000  
O 0.0000000000 0.0000000000 0.8221477492  

