&BANDS
  prefix = 'ZnO_PBE_bulk'
  outdir = './'
  filband = 'ZnO_bulk_bands_noGGApU.dat'
/
