&CONTROL
   calculation      = 'scf'
   tprnfor          = .true.
   outdir           = './'
   prefix           = 'ZnO_231'
   pseudo_dir       = '../pseudos'
/
&SYSTEM
   ibrav            = 0
   ecutwfc          = 50
   ecutrho          = 400
   occupations      = 'fixed'
   ntyp             = 2
   nat              = 24
/
&ELECTRONS
   conv_thr         = 1e-08
   mixing_beta      = 0.3
/
&IONS
/
&CELL
/
&FCP
/
&RISM
/
ATOMIC_SPECIES
Zn 65.38 Zn.upf
O 15.999 O.upf

K_POINTS automatic
6 6 6  0 0 0

CELL_PARAMETERS angstrom
6.53941742600000 0.00000000000000 0.00000000000000
-4.90456306950000 8.49495242529997 0.00000000000000
0.00000000000000 0.00000000000000 5.27848158251756

ATOMIC_POSITIONS angstrom
Zn 0.0000000000 0.0000000000 0.0000000000  
O 0.0000000000 1.8877672056 0.6444896849  
Zn 0.0000000000 1.8877672056 2.6392407913  
O 0.0000000000 0.0000000000 3.2837304761  
Zn -1.6348543565 2.8316508084 0.0000000000  
O -1.6348543565 4.7194180141 0.6444896849  
Zn -1.6348543565 4.7194180141 2.6392407913  
O -1.6348543565 2.8316508084 3.2837304761  
Zn -3.2697087130 5.6633016169 0.0000000000  
O -3.2697087130 7.5510688225 0.6444896849  
Zn -3.2697087130 7.5510688225 2.6392407913  
O -3.2697087130 5.6633016169 3.2837304761  
Zn 3.2697087130 0.0000000000 0.0000000000  
O 3.2697087130 1.8877672056 0.6444896849  
Zn 3.2697087130 1.8877672056 2.6392407913  
O 3.2697087130 0.0000000000 3.2837304761  
Zn 1.6348543565 2.8316508084 0.0000000000  
O 1.6348543565 4.7194180141 0.6444896849  
Zn 1.6348543565 4.7194180141 2.6392407913  
O 1.6348543565 2.8316508084 3.2837304761  
Zn 0.0000000000 5.6633016169 0.0000000000  
O 0.0000000000 7.5510688225 0.6444896849  
Zn 0.0000000000 7.5510688225 2.6392407913  
O 0.0000000000 5.6633016169 3.2837304761  

