&CONTROL
   calculation      = 'scf'
   tprnfor          = .true.
   outdir           = './'
   prefix           = 'ZnO_111'
   pseudo_dir       = '../pseudos'
/
&SYSTEM
   ibrav            = 0
   ecutwfc          = 50
   ecutrho          = 400
   occupations      = 'fixed'
   ntyp             = 2
   nat              = 4
/
&ELECTRONS
   conv_thr         = 1e-08
   mixing_beta      = 0.3
/
&IONS
/
&CELL
/
&FCP
/
&RISM
/
ATOMIC_SPECIES
Zn 65.38 Zn.upf
O 15.999 O.upf

K_POINTS automatic
6 6 6  0 0 0

CELL_PARAMETERS angstrom
3.26970871300000 0.00000000000000 0.00000000000000
-1.63485435650000 2.83165080843332 0.00000000000000
0.00000000000000 0.00000000000000 5.27848158251756

ATOMIC_POSITIONS angstrom
Zn 0.0000000000 0.0000000000 0.0000000000  
O 0.0000000000 1.8877672056 0.6444896849  
Zn 0.0000000000 1.8877672056 2.6392407913  
O 0.0000000000 0.0000000000 3.2837304761  

