&CONTROL
   calculation      = 'scf'
   verbosity        = 'high'
   tprnfor          = .true.
   outdir           = './'
   prefix           = 'ZnO-3.53-1.71-321'
   disk_io          = 'none'
   pseudo_dir       = '/home/jvc/QEspresso7.2/ZnO_database/pseudos'
/
&SYSTEM
   ibrav            = 0
   ecutwfc          = 50
   ecutrho          = 400
   occupations      = 'fixed'
   ntyp             = 2
   nat              = 24
/
&ELECTRONS
   conv_thr         = 1e-08
   mixing_beta      = 0.3
/
&IONS
/
&CELL
/
&FCP
/
&RISM
/
ATOMIC_SPECIES
Zn 65.38 Zn.upf
O 15.999 O.upf

K_POINTS automatic
6 6 6  0 0 0

CELL_PARAMETERS angstrom
10.59385622927081 0.00000000000000 0.00000000000000
-3.53128540975694 6.11636574572569 0.00000000000000
0.00000000000000 0.00000000000000 6.04280571575445

ATOMIC_POSITIONS crystal
Zn 0.2222222222 0.1666666666 0.5006335854  
Zn 0.1111111111 0.3333333333 0.0006335854  
O 0.2222222222 0.1666666666 0.8796764146  
O 0.1111111111 0.3333333333 0.3796764146  
Zn 0.2222222222 0.6666666667 0.5006335854  
Zn 0.1111111111 0.8333333333 0.0006335854  
O 0.2222222222 0.6666666667 0.8796764146  
O 0.1111111111 0.8333333333 0.3796764146  
Zn 0.5555555556 0.1666666666 0.5006335854  
Zn 0.4444444444 0.3333333333 0.0006335854  
O 0.5555555556 0.1666666666 0.8796764146  
O 0.4444444444 0.3333333333 0.3796764146  
Zn 0.5555555556 0.6666666667 0.5006335854  
Zn 0.4444444444 0.8333333333 0.0006335854  
O 0.5555555556 0.6666666667 0.8796764146  
O 0.4444444444 0.8333333333 0.3796764146  
Zn 0.8888888889 0.1666666666 0.5006335854  
Zn 0.7777777778 0.3333333333 0.0006335854  
O 0.8888888889 0.1666666666 0.8796764146  
O 0.7777777778 0.3333333333 0.3796764146  
Zn 0.8888888889 0.6666666667 0.5006335854  
Zn 0.7777777778 0.8333333333 0.0006335854  
O 0.8888888889 0.6666666667 0.8796764146  
O 0.7777777778 0.8333333333 0.3796764146  

