&CONTROL
   calculation      = 'scf'
   verbosity        = 'high'
   tprnfor          = .true.
   outdir           = './'
   prefix           = 'ZnO-3.53-1.65-132'
   disk_io          = 'none'
   pseudo_dir       = '/home/jvc/QEspresso7.2/ZnO_database/pseudos'
/
&SYSTEM
   ibrav            = 0
   ecutwfc          = 50
   ecutrho          = 400
   occupations      = 'fixed'
   ntyp             = 2
   nat              = 24
/
&ELECTRONS
   conv_thr         = 1e-08
   mixing_beta      = 0.3
/
&IONS
/
&CELL
/
&FCP
/
&RISM
/
ATOMIC_SPECIES
Zn 65.38 Zn.upf
O 15.999 O.upf

K_POINTS automatic
6 6 6  0 0 0

CELL_PARAMETERS angstrom
3.53128540975694 0.00000000000000 0.00000000000000
-5.29692811463540 9.17454861858854 0.00000000000000
0.00000000000000 0.00000000000000 11.62955062277272

ATOMIC_POSITIONS crystal
Zn 0.6666666667 0.1111111111 0.2503167927  
Zn 0.3333333333 0.2222222222 0.0003167927  
O 0.6666666667 0.1111111111 0.4398382073  
O 0.3333333333 0.2222222222 0.1898382073  
Zn 0.6666666667 0.1111111111 0.7503167927  
Zn 0.3333333333 0.2222222222 0.5003167927  
O 0.6666666667 0.1111111111 0.9398382073  
O 0.3333333333 0.2222222222 0.6898382073  
Zn 0.6666666667 0.4444444444 0.2503167927  
Zn 0.3333333333 0.5555555556 0.0003167927  
O 0.6666666667 0.4444444444 0.4398382073  
O 0.3333333333 0.5555555556 0.1898382073  
Zn 0.6666666667 0.4444444444 0.7503167927  
Zn 0.3333333333 0.5555555556 0.5003167927  
O 0.6666666667 0.4444444444 0.9398382073  
O 0.3333333333 0.5555555556 0.6898382073  
Zn 0.6666666667 0.7777777778 0.2503167927  
Zn 0.3333333333 0.8888888889 0.0003167927  
O 0.6666666667 0.7777777778 0.4398382073  
O 0.3333333333 0.8888888889 0.1898382073  
Zn 0.6666666667 0.7777777778 0.7503167927  
Zn 0.3333333333 0.8888888889 0.5003167927  
O 0.6666666667 0.7777777778 0.9398382073  
O 0.3333333333 0.8888888889 0.6898382073  

