&CONTROL
   calculation      = 'scf'
   verbosity        = 'high'
   tprnfor          = .true.
   outdir           = './'
   prefix           = 'ZnO-2.94-1.61-213'
   disk_io          = 'none'
   pseudo_dir       = '/home/jvc/QEspresso7.2/ZnO_database/pseudos'
/
&SYSTEM
   ibrav            = 0
   ecutwfc          = 50
   ecutrho          = 400
   occupations      = 'fixed'
   ntyp             = 2
   nat              = 24
/
&ELECTRONS
   conv_thr         = 1e-08
   mixing_beta      = 0.3
/
&IONS
/
&CELL
/
&FCP
/
&RISM
/
ATOMIC_SPECIES
Zn 65.38 Zn.upf
O 15.999 O.upf

K_POINTS automatic
6 6 6  0 0 0

CELL_PARAMETERS angstrom
5.88547568292823 0.00000000000000 0.00000000000000
-1.47136892073206 2.54848572738571 0.00000000000000
0.00000000000000 0.00000000000000 14.25190027300579

ATOMIC_POSITIONS crystal
Zn 0.3333333333 0.3333333333 0.1668778618  
Zn 0.1666666666 0.6666666667 0.0002111951  
O 0.3333333333 0.3333333333 0.2932254715  
O 0.1666666666 0.6666666667 0.1265588049  
Zn 0.3333333333 0.3333333333 0.5002111951  
Zn 0.1666666666 0.6666666667 0.3335445285  
O 0.3333333333 0.3333333333 0.6265588049  
O 0.1666666666 0.6666666667 0.4598921382  
Zn 0.3333333333 0.3333333333 0.8335445285  
Zn 0.1666666666 0.6666666667 0.6668778618  
O 0.3333333333 0.3333333333 0.9598921382  
O 0.1666666666 0.6666666667 0.7932254715  
Zn 0.8333333333 0.3333333333 0.1668778618  
Zn 0.6666666666 0.6666666667 0.0002111951  
O 0.8333333333 0.3333333333 0.2932254715  
O 0.6666666666 0.6666666667 0.1265588049  
Zn 0.8333333333 0.3333333333 0.5002111951  
Zn 0.6666666666 0.6666666667 0.3335445285  
O 0.8333333333 0.3333333333 0.6265588049  
O 0.6666666666 0.6666666667 0.4598921382  
Zn 0.8333333333 0.3333333333 0.8335445285  
Zn 0.6666666666 0.6666666667 0.6668778618  
O 0.8333333333 0.3333333333 0.9598921382  
O 0.6666666666 0.6666666667 0.7932254715  

