&CONTROL
   calculation      = 'scf'
   verbosity        = 'high'
   tprnfor          = .true.
   outdir           = './'
   prefix           = 'ZnO-2.94-1.52-121'
   disk_io          = 'none'
   pseudo_dir       = '/home/jvc/QEspresso7.2/ZnO_database/pseudos'
/
&SYSTEM
   ibrav            = 0
   ecutwfc          = 50
   ecutrho          = 400
   occupations      = 'fixed'
   ntyp             = 2
   nat              = 8
/
&ELECTRONS
   conv_thr         = 1e-08
   mixing_beta      = 0.3
/
&IONS
/
&CELL
/
&FCP
/
&RISM
/
ATOMIC_SPECIES
Zn 65.38 Zn.upf
O 15.999 O.upf

K_POINTS automatic
6 6 6  0 0 0

CELL_PARAMETERS angstrom
2.94273784146411 0.00000000000000 0.00000000000000
-2.94273784146411 5.09697145477141 0.00000000000000
0.00000000000000 0.00000000000000 4.46559541887515

ATOMIC_POSITIONS crystal
Zn 0.0000000000 0.0000000000 0.0000000000  
O 0.3333333333 0.3333333333 0.1052484756  
Zn 0.3333333333 0.3333333333 0.5000000000  
O 0.0000000000 0.0000000000 0.6052484756  
Zn 0.0000000000 0.5000000000 0.0000000000  
O 0.3333333333 0.8333333333 0.1052484756  
Zn 0.3333333333 0.8333333333 0.5000000000  
O 0.0000000000 0.5000000000 0.6052484756  

