&CONTROL
   calculation      = 'scf'
   tprnfor          = .true.
   outdir           = './'
   prefix           = 'ZnO-3.34-1.58-211.in'
   pseudo_dir       = '/home/jvc/QEspresso7.2/ZnO_database/pseudos'
/
&SYSTEM
   ibrav            = 0
   ecutwfc          = 50
   ecutrho          = 400
   occupations      = 'fixed'
   ntyp             = 2
   nat              = 8
/
&ELECTRONS
   conv_thr         = 1e-08
   mixing_beta      = 0.3
/
&IONS
/
&CELL
/
&FCP
/
&RISM
/
ATOMIC_SPECIES
Zn 65.38 Zn.upf
O 15.999 O.upf

K_POINTS automatic
6 6 6  0 0 0

CELL_PARAMETERS angstrom
6.67020577398532 0.00000000000000 0.00000000000000
-1.66755144349633 2.88828382437047 0.00000000000000
0.00000000000000 0.00000000000000 5.27637018996170

ATOMIC_POSITIONS crystal
Zn 0.0000000000 0.0000000000 0.0000000000  
O 0.1666666667 0.6666666667 0.1168237745  
Zn 0.1666666667 0.6666666667 0.5000000000  
O 0.0000000000 0.0000000000 0.6168237745  
Zn 0.5000000000 0.0000000000 0.0000000000  
O 0.6666666667 0.6666666667 0.1168237745  
Zn 0.6666666667 0.6666666667 0.5000000000  
O 0.5000000000 0.0000000000 0.6168237745  

