&CONTROL
  calculation = 'scf',
  pseudo_dir = './pseudos',
  outdir='./',
  prefix = 'ZnO_ANN',
  tprnfor=.true.,! Não remover, pois as forças são necessárias.
/
&SYSTEM
  ibrav= 4,
  celldm(1) = 5.931668551775, ! Bohr
  celldm(3) = 1.452922520538, ! Bohr
  ntyp= 2,
  nat= 4,
  ecutwfc = 50,
  ecutrho = 400,
  occupations = 'fixed',
/
&ELECTRONS
  conv_thr= 1.0d-8,
  mixing_beta=0.3,
/
ATOMIC_SPECIES
Zn  63.380  Zn.upf
O   15.999  O.upf

K_POINTS automatic
6 6 6 0 0 0

ATOMIC_POSITIONS (crystal)
Zn  0.874312409309  0.530098079700  0.413780710429
Zn  0.278968598682  0.906277781022  0.244012256441
O   0.587548036345  0.202028141121  0.880726833851
O   0.089405888880  0.885446204505  0.623519984415
