&CONTROL
  calculation = 'scf',
  pseudo_dir = './pseudos',
  outdir='./',
  prefix = 'ZnO_ANN',
  tprnfor=.true.,! Não remover, pois as forças são necessárias.
/
&SYSTEM
  ibrav= 4,
  celldm(1) = 6.673127120747, ! Bohr
  celldm(3) = 1.582071189030, ! Bohr
  ntyp= 2,
  nat= 4,
  ecutwfc = 50,
  ecutrho = 400,
  occupations = 'fixed',
/
&ELECTRONS
  conv_thr= 1.0d-8,
  mixing_beta=0.3,
/
ATOMIC_SPECIES
Zn  63.380  Zn.upf
O   15.999  O.upf

K_POINTS automatic
6 6 6 0 0 0

ATOMIC_POSITIONS (crystal)
Zn  0.797280133985  0.439621922338  0.398221380933
Zn  0.478673922774  0.472220426311  0.016335329927
O   0.780079001882  0.225465448219  1.118742132719
O   0.161659280874  0.499836784726  0.590404826152
