&CONTROL
  calculation = 'scf',
  pseudo_dir = './pseudos',
  outdir='./',
  prefix = 'ZnO_ANN',
  tprnfor=.true.,! Não remover, pois as forças são necessárias.
/
&SYSTEM
  ibrav= 4,
  celldm(1) = 6.796703548909, ! Bohr
  celldm(3) = 1.517496854784, ! Bohr
  ntyp= 2,
  nat= 4,
  ecutwfc = 50,
  ecutrho = 400,
  occupations = 'fixed',
/
&ELECTRONS
  conv_thr= 1.0d-8,
  mixing_beta=0.3,
/
ATOMIC_SPECIES
Zn  63.380  Zn.upf
O   15.999  O.upf

K_POINTS automatic
6 6 6 0 0 0

ATOMIC_POSITIONS (crystal)
Zn  0.679024438029  0.314205615212  0.430296517203
Zn  0.294870819106  0.667563597263  0.131025612680
O   0.617060106164  0.322485174774  0.976194455210
O   0.358583789747  0.701867799751  0.275829495198
