&CONTROL
  calculation = 'scf',
  pseudo_dir = './pseudos',
  outdir='./',
  prefix = 'ZnO_ANN',
  tprnfor=.true.
/
&SYSTEM
  ibrav= 0,
  celldm(1) = 6.425974264423, ! a em Bohr
  ntyp= 2,
  nat= 4,
  ecutwfc = 50,
  ecutrho = 400,
  occupations = 'fixed',
/
&ELECTRONS
  conv_thr= 1.0d-8,
  mixing_beta=0.3,
/
ATOMIC_SPECIES
Zn  63.380  Zn.upf
O   15.999  O.upf

K_POINTS automatic
6 6 6 0 0 0

CELL_PARAMETERS {alat} ! Necessário em ibrav=0.
   1.000000000   0.000000000   0.000000000  ! v1 = (1, 0, 0) * a
  -0.500000000   0.866025404   0.000000000  ! v2 = (-1/2, sqrt(3)/2, 0) * a
   0.000000000   0.000000000   1.600000000  ! v3 = (0, 0, c/a) * a

ATOMIC_POSITIONS (crystal)
Zn  0.511171043750  0.313598763832  0.533263309270
Zn  0.088359792760  0.535434441306  0.028326100246
O   0.559902950411  0.232098562781  0.800796890905
O   0.486133641632  0.577345305590  0.190981152392
