&CONTROL
   calculation      = 'scf'
   verbosity        = 'high'
   tprnfor          = .true.
   outdir           = './'
   prefix           = 'ZnO-2.94-1.58-111'
   disk_io          = 'none'
   pseudo_dir       = '/home/jvc/QEspresso7.2/ZnO_database/pseudos'
/
&SYSTEM
   ibrav            = 0
   ecutwfc          = 50
   ecutrho          = 400
   occupations      = 'fixed'
   ntyp             = 2
   nat              = 4
/
&ELECTRONS
   conv_thr         = 1e-08
   mixing_beta      = 0.3
/
&IONS
/
&CELL
/
&FCP
/
&RISM
/
ATOMIC_SPECIES
Zn 65.38 Zn.upf
O 15.999 O.upf

K_POINTS automatic
6 6 6  0 0 0

CELL_PARAMETERS angstrom
2.94273784146411 0.00000000000000 0.00000000000000
-1.47136892073206 2.54848572738571 0.00000000000000
0.00000000000000 0.00000000000000 4.65562075584856

ATOMIC_POSITIONS crystal
Zn 0.6666666667 0.3333333333 0.5006335854  
Zn 0.3333333333 0.6666666667 0.0006335854  
O 0.6666666667 0.3333333333 0.8796764146  
O 0.3333333333 0.6666666667 0.3796764146  

