&control
  calculation = 'scf',
  pseudo_dir = '../../../pseudos',
  outdir='./',
  prefix = 'ZnO_ANN',
  tprnfor=.true.
/
&system
  ibrav= 0,
  ntyp= 2,
  nat= 4,
  ecutwfc = 50,
  ecutrho = 400,
  occupations = 'fixed',
/
&electrons
  conv_thr= 1.0d-8,
  mixing_beta=0.3,
/
K_POINTS automatic
6 6 6 0 0 0
