&CONTROL
  calculation = 'scf',
  pseudo_dir = './pseudos',
  outdir='./',
  prefix = 'ZnO_ANN',
  tprnfor=.true.,! Não remover, pois as forças são necessárias.
/
&SYSTEM
  ibrav= 4,
  celldm(1) = 5.931668551775, ! Bohr
  celldm(3) = 1.743507024645, ! Bohr
  ntyp= 2,
  nat= 4,
  ecutwfc = 50,
  ecutrho = 400,
  occupations = 'fixed',
/
&ELECTRONS
  conv_thr= 1.0d-8,
  mixing_beta=0.3,
/
ATOMIC_SPECIES
Zn  63.380  Zn.upf
O   15.999  O.upf

K_POINTS automatic
6 6 6 0 0 0

ATOMIC_POSITIONS (crystal)
Zn  0.529552206614  0.356584227095  0.325809490281
Zn  0.417121972040  0.457044337375  -0.051326737077
O   0.616500177735  0.302543160918  1.035859675936
O   0.184845242377  0.639335089298  0.233524677870
