&CONTROL
  calculation = 'scf',
  pseudo_dir = './pseudos',
  outdir='./',
  prefix = 'ZnO_ANN',
  tprnfor=.true.,! Não remover, pois as forças são necessárias.
/
&SYSTEM
  ibrav= 4,
  celldm(1) = 6.302397836261, ! Bohr
  celldm(3) = 1.711219857522, ! Bohr
  ntyp= 2,
  nat= 4,
  ecutwfc = 50,
  ecutrho = 400,
  occupations = 'fixed',
/
&ELECTRONS
  conv_thr= 1.0d-8,
  mixing_beta=0.3,
/
ATOMIC_SPECIES
Zn  63.380  Zn.upf
O   15.999  O.upf

K_POINTS automatic
6 6 6 0 0 0

ATOMIC_POSITIONS (crystal)
Zn  0.772450862231  0.132763894660  0.267860949718
Zn  0.134744496927  0.496070115742  -0.236133206855
O   0.606798635655  0.488424422004  0.951515236414
O   0.155133340713  0.735569364234  0.337387320892
