&control
  calculation = 'scf',
  pseudo_dir = '../../../pseudos',
  outdir='./',
  prefix = 'ZnO_ANN',
  tprnfor=.true.
/
&system
  ibrav= 0,
  ntyp= 2,
  nat= 4,
  ecutwfc = 50,
  ecutrho = 400,
  occupations = 'fixed',
/
&electrons
  conv_thr= 1.0d-8,
  mixing_beta=0.3,
/
K_POINTS automatic
6 6 6 0 0 0
!    ibrav = 0, nat = 8, ntyp = 2
CELL_PARAMETERS bohr
   12.3576437878606544    0.0000000000000000    0.0000000000000000
   -3.0894109460203003    5.3510167261067370    0.0000000000000000
    0.0000000000000000    0.0000000000000000    9.9748327553555978
ATOMIC_SPECIES
 Zn   65.38000   Zn.upf
  O   15.99940   O.upf
ATOMIC_POSITIONS crystal
 Zn   0.3317149018477385  0.3333333333000000  0.5006335854000000
 Zn   0.8333333333500000  0.3333333333000000  0.5006335854000000
 Zn   0.1666666666500000  0.6666666667000000  0.0006335854000000
 Zn   0.6666666666500001  0.6666666667000000  0.0006335854000000
  O   0.3333333333500000  0.3333333333000000  0.8796764146000000
  O   0.8333333333500000  0.3333333333000000  0.8796764146000000
  O   0.1666666666500000  0.6666666667000000  0.3796764146000000
  O   0.6666666666500001  0.6666666667000000  0.3796764146000000
