&BANDS
  prefix = 'ZnO_PBE_bulk'
  outdir = './'
  filband = 'ZnO-fixed_bands.dat'
/
