&DOS
  prefix = 'ZnO_PBE_bulk',
  outdir = './',
  fildos = 'ZnO-fixed_dos.dat',
  emin = -12.0,
  emax = 16.0
/
