&CONTROL
  calculation = 'bands',
  restart_mode = 'from_scratch',
  !restart_mode = 'restart',
  pseudo_dir = '../pseudos',
  outdir='.'
  prefix = 'ZnO_PBE_bulk',!nome do diretorio onde salva as wfc's
  nstep=450,
  verbosity = 'high',
  tstress=.true.,
  tprnfor=.true.,
  forc_conv_thr=1.0d-5,
  etot_conv_thr=1.0d-6,
/
&SYSTEM
    ibrav= 4,
    celldm(1) = 6.194571412,
    celldm(3) = 1.614358356,
    ntyp= 2,
    nat=  4,
    ecutwfc =  70,
    ecutrho = 350,
    occupations = 'fixed',
    nbnd =  72,
    degauss = 0.005,
    smearing = 'gaussian',
/
&ELECTRONS
    diagonalization = 'david'
    mixing_mode='local-TF',
    conv_thr= 1.0d-9,
    mixing_beta=0.1,
    electron_maxstep=190,
/

ATOMIC_SPECIES
Zn   63.380    Zn.upf
 O   15.999    O.upf


ATOMIC_POSITIONS (crystal)
Zn            0.6666666667        0.3333333333        0.5006426381
Zn            0.3333333333        0.6666666667        0.0006426381
O             0.6666666667        0.3333333333        0.8796673619
O             0.3333333333        0.6666666667        0.3796673619
K_POINTS (crystal)
  36
 0.0000  0.0000  0.0000 1 !G
 0.1000  0.0000  0.0000 1
 0.2000  0.0000  0.0000 1
 0.3000  0.0000  0.0000 1
 0.4000  0.0000  0.0000 1
 0.5000  0.0000  0.0000 1 !M
 0.5000  0.0000  0.1000 1
 0.5000  0.0000  0.2000 1
 0.5000  0.0000  0.3000 1
 0.5000  0.0000  0.4000 1
 0.5000  0.0000  0.5000 1 !L
 0.4000  0.0000  0.5000 1
 0.3000  0.0000  0.5000 1
 0.2000  0.0000  0.5000 1
 0.1000  0.0000  0.5000 1
 0.0000  0.0000  0.5000 1 !A
 0.0000  0.0000  0.4000 1
 0.0000  0.0000  0.3000 1
 0.0000  0.0000  0.2000 1
 0.0000  0.0000  0.1000 1
 0.0000  0.0000  0.0000 1 !G
 0.1333  0.0666  0.0000 1
 0.2666  0.1333  0.0000 1
 0.3999  0.1999  0.0000 1
 0.5333  0.2666  0.0000 1
 0.6666  0.3333  0.0000 1 !K
 0.6666  0.3333  0.1000 1
 0.6666  0.3333  0.2000 1
 0.6666  0.3333  0.3000 1
 0.6666  0.3333  0.4000 1
 0.6666  0.3333  0.5000 1 !H
 0.5333  0.2666  0.5000 1
 0.3999  0.1999  0.5000 1
 0.2666  0.1333  0.5000 1
 0.1333  0.0666  0.5000 1
 0.0000  0.0000  0.5000 1 !A
