&CONTROL
   calculation      = 'scf'
   verbosity        = 'high'
   tprnfor          = .true.
   outdir           = './'
   prefix           = 'ZnO-3.60-1.49-311'
   disk_io          = 'none'
   pseudo_dir       = '/home/jvc/QEspresso7.2/ZnO_database/pseudos'
/
&SYSTEM
   ibrav            = 0
   ecutwfc          = 50
   ecutrho          = 400
   occupations      = 'fixed'
   ntyp             = 2
   nat              = 12
/
&ELECTRONS
   conv_thr         = 1e-08
   mixing_beta      = 0.3
/
&IONS
/
&CELL
/
&FCP
/
&RISM
/
ATOMIC_SPECIES
Zn 65.38 Zn.upf
O 15.999 O.upf

K_POINTS automatic
2 6 6  0 0 0

CELL_PARAMETERS angstrom
9.80907514500000 0.00000000000000 0.00000000000000
-1.63484585700000 2.83163608800000 0.00000000000000
0.00000000000000 0.00000000000000 5.27845414200000

ATOMIC_POSITIONS crystal
Zn 0.2222222222 0.3333333333 0.5006335854  
Zn 0.1111111111 0.6666666667 0.0006335854  
O 0.2222222222 0.3333333333 0.8796764146  
O 0.1111111111 0.6666666667 0.3796764146  
Zn 0.5555555556 0.3333333333 0.5006335854  
Zn 0.4444444444 0.6666666667 0.0006335854  
O 0.5555555556 0.3333333333 0.8796764146  
O 0.4444444444 0.6666666667 0.3796764146  
Zn 0.8888888889 0.3333333333 0.5006335854  
Zn 0.7777777778 0.6666666667 0.0006335854  
O 0.8888888889 0.3333333333 0.8796764146  
O 0.7777777778 0.6666666667 0.3796764146  

