&CONTROL
  calculation = 'scf',
  pseudo_dir = '/home/jvc/QEspresso7.2/ZnO_database/pseudos',
  outdir='./',
  prefix = 'ZnO_ANN',
  tstress=.true.,
  tprnfor=.true.,
/
&SYSTEM
  ibrav= 4,
  celldm(1) = 5.931668551775,
  celldm(3) = 1.469066104099,
  ntyp= 2,
  nat= 4,
  ecutwfc = 50,
  ecutrho = 400,
  occupations = 'fixed',
/
&ELECTRONS
  conv_thr= 1.0d-8,
  mixing_beta=0.3,
/
ATOMIC_SPECIES
Zn  63.380  Zn.upf
O   15.999  O.upf

K_POINTS automatic
6 6 6 0 0 0

ATOMIC_POSITIONS (crystal)
Zn  0.666666666700  0.333333333300  0.500633585400
Zn  0.333333333300  0.666666666700  0.000633585400
O   0.666666666700  0.333333333300  0.879676414600
O   0.333333333300  0.666666666700  0.379676414600
