&control
  calculation = 'scf',
  pseudo_dir = '../../../pseudos',
  outdir='./',
  prefix = 'ZnO_ANN',
  tprnfor=.true.
/
&system
  ibrav= 0,
  ntyp= 2,
  nat= 4,
  ecutwfc = 50,
  ecutrho = 400,
  occupations = 'fixed',
/
&electrons
  conv_thr= 1.0d-8,
  mixing_beta=0.3,
/
ATOMIC_SPECIES
Zn  63.380  Zn.upf
O   15.999  O.upf
ATOMIC_POSITIONS (crystal)
Zn            0.6666666667        0.3333333333        0.5006335854
Zn            0.3333333333        0.6666666667        0.0006335854
O             0.6666666667        0.3333333333        0.8796764146
O             0.3333333333        0.6666666667        0.3796764146
CELL_PARAMETERS {angstrom}
   3.269691715    0.000000000   0.000000000  ! v1 = (1, 0, 0) * a ; a = 3.2696917148002096 
  -1.634845857    2.831636088   0.000000000  ! v2 = (-1/2, sqrt(3)/2, 0) * a
   0.000000000    0.000000000   5.278454142  ! v3 = (0, 0, c/a) * a
K_POINTS automatic
6 6 6 0 0 0

 
