&CONTROL
  calculation = 'scf',
  pseudo_dir = './pseudos',
  outdir='./',
  prefix = 'ZnO_ANN',
  tprnfor=.true.
/
&SYSTEM
  ibrav= 0,
  celldm(1) = 6.673127120747, ! a em Bohr
  ntyp= 2,
  nat= 4,
  ecutwfc = 50,
  ecutrho = 400,
  occupations = 'fixed',
/
&ELECTRONS
  conv_thr= 1.0d-8,
  mixing_beta=0.3,
/
ATOMIC_SPECIES
Zn  63.380  Zn.upf
O   15.999  O.upf

K_POINTS automatic
6 6 6 0 0 0

CELL_PARAMETERS {alat} ! Necessário em ibrav=0.
   1.000000000   0.000000000   0.000000000  ! v1 = (1, 0, 0) * a
  -0.500000000   0.866025404   0.000000000  ! v2 = (-1/2, sqrt(3)/2, 0) * a
   0.000000000   0.000000000   1.600000000  ! v3 = (0, 0, c/a) * a

ATOMIC_POSITIONS (crystal)
Zn  0.499344399329  0.528300474901  0.561042765754
Zn  0.392873617590  0.425588304763  0.203811782269
O   0.803115049605  0.187058336743  0.663549504602
O   0.204283452408  0.708099406736  0.421095395613
