&CONTROL
   calculation      = 'scf'
   verbosity        = 'high'
   tprnfor          = .true.
   outdir           = './'
   prefix           = 'ZnO-3.47-1.55-221'
   disk_io          = 'none'
   pseudo_dir       = '/home/jvc/QEspresso7.2/ZnO_database/pseudos'
/
&SYSTEM
   ibrav            = 0
   ecutwfc          = 50
   ecutrho          = 400
   occupations      = 'fixed'
   ntyp             = 2
   nat              = 16
/
&ELECTRONS
   conv_thr         = 1e-08
   mixing_beta      = 0.3
/
&IONS
/
&CELL
/
&FCP
/
&RISM
/
ATOMIC_SPECIES
Zn 65.38 Zn.upf
O 15.999 O.upf

K_POINTS automatic
3 3 6  0 0 0

CELL_PARAMETERS angstrom
6.53938343000000 0.00000000000000 0.00000000000000
-3.26969171400000 5.66327217600000 0.00000000000000
0.00000000000000 0.00000000000000 5.27845414200000

ATOMIC_POSITIONS crystal
Zn 0.3333333333 0.1666666666 0.5006335854  
Zn 0.1666666666 0.3333333333 0.0006335854  
O 0.3333333333 0.1666666666 0.8796764146  
O 0.1666666666 0.3333333333 0.3796764146  
Zn 0.3333333333 0.6666666666 0.5006335854  
Zn 0.1666666667 0.8333333334 0.0006335854  
O 0.3333333333 0.6666666666 0.8796764146  
O 0.1666666667 0.8333333334 0.3796764146  
Zn 0.8333333333 0.1666666666 0.5006335854  
Zn 0.6666666666 0.3333333333 0.0006335854  
O 0.8333333333 0.1666666666 0.8796764146  
O 0.6666666666 0.3333333333 0.3796764146  
Zn 0.8333333333 0.6666666666 0.5006335854  
Zn 0.6666666667 0.8333333334 0.0006335854  
O 0.8333333333 0.6666666666 0.8796764146  
O 0.6666666667 0.8333333334 0.3796764146  

